GeneratedTests/Random_7/Random_7_4.tsp
NAME: Random_7_4
TYPE: TSP
DIMENSION: 7
EDGE_WEIGHT_TYPE: EUC_2D
NODE_COORD_SECTION
1 9.347822 1.5542604
2 5.5756593 0.3912431
3 12.385801 3.847762
4 2.8469548 19.341913
5 1.0133381 20.493761
6 14.874093 12.927038
7 20.550995 7.378763
EOF
