GeneratedTests/Random_7/Random_7_4.txt
NAME: Random_7_4
TYPE: TSP
DIMENSION: 7
EDGE_WEIGHT_TYPE: EUC_2D
NODE_COORD_SECTION
1 18.810757 5.6006317
2 1.5826576 18.777966
3 15.79718 15.931533
4 20.126297 6.580174
5 9.158489 9.981035
6 5.8543634 19.747038
7 0.80999726 16.143435
EOF
